DIMACS2
20 308 140 153 96 106 205 29 73 261 175 131 108 173 76 98 163 78 199 284 137
p edge 320 1371
e 0 66 1.0
e 0 309 1.0
e 0 278 2.0
e 0 160 1.0
e 1 318 2.0
e 1 137 49.0
e 1 196 1.0
e 1 155 2.0
e 2 164 1.0
e 2 123 1.0
e 2 317 1.0
e 2 211 1.0
e 3 94 1.0
e 3 169 1.0
e 3 281 1.0
e 3 99 1.0
e 4 258 2.0
e 4 261 19.0
e 4 316 1.0
e 4 114 2.0
e 5 90 1.0
e 5 252 3.0
e 5 141 1.0
e 5 152 1.0
e 6 190 1.0
e 6 262 1.0
e 6 57 2.0
e 6 70 1.0
e 7 41 1.0
e 7 188 1.0
e 7 206 1.0
e 7 96 11.0
e 8 279 1.0
e 8 69 3.0
e 8 73 18.0
e 8 44 1.0
e 9 238 1.0
e 9 153 42.0
e 9 205 9.0
e 9 239 1.0
e 10 222 1.0
e 10 260 3.0
e 10 115 1.0
e 10 80 1.0
e 11 295 2.0
e 11 213 1.0
e 11 230 1.0
e 11 8 1.0
e 12 283 1.0
e 12 259 1.0
e 12 238 1.0
e 12 84 1.0
e 13 137 35.0
e 13 183 2.0
e 13 209 1.0
e 13 234 1.0
e 14 214 2.0
e 14 108 13.0
e 14 256 1.0
e 14 263 1.0
e 15 239 1.0
e 15 102 1.0
e 15 137 4.0
e 15 126 1.0
e 16 186 1.0
e 16 108 24.0
e 16 228 1.0
e 16 204 1.0
e 17 252 2.0
e 17 149 1.0
e 17 176 1.0
e 17 269 1.0
e 18 242 1.0
e 18 156 1.0
e 18 51 1.0
e 18 295 1.0
e 19 297 1.0
e 19 95 1.0
e 19 54 1.0
e 19 217 1.0
e 20 204 1.0
e 20 24 1.0
e 20 137 49.0
e 20 155 2.0
e 21 233 1.0
e 21 219 1.0
e 21 186 1.0
e 21 135 1.0
e 22 225 1.0
e 22 81 1.0
e 22 65 2.0
e 22 186 1.0
e 23 127 2.0
e 23 225 2.0
e 23 94 2.0
e 23 92 1.0
e 24 121 1.0
e 24 29 19.0
e 24 128 1.0
e 24 312 2.0
e 25 149 1.0
e 25 40 1.0
e 25 86 1.0
e 25 7 1.0
e 26 103 3.0
e 26 282 1.0
e 26 139 1.0
e 26 199 12.0
e 27 55 1.0
e 27 92 1.0
e 27 125 2.0
e 27 0 1.0
e 28 147 2.0
e 28 2 1.0
e 28 195 1.0
e 28 98 36.0
e 29 175 35.0
e 29 296 21.0
e 29 294 15.0
e 29 140 33.0
e 29 319 16.0
e 29 73 16.0
e 29 261 15.0
e 30 261 31.0
e 30 118 1.0
e 30 303 1.0
e 30 149 2.0
e 31 41 1.0
e 31 39 1.0
e 31 185 1.0
e 31 255 1.0
e 32 241 1.0
e 32 311 1.0
e 32 291 1.0
e 32 6 1.0
e 33 134 1.0
e 33 303 1.0
e 33 9 1.0
e 33 26 1.0
e 34 297 2.0
e 34 45 2.0
e 34 200 1.0
e 34 294 2.0
e 35 160 1.0
e 35 318 1.0
e 35 231 2.0
e 35 29 43.0
e 36 140 30.0
e 36 19 1.0
e 36 268 1.0
e 36 21 1.0
e 37 293 1.0
e 37 7 1.0
e 37 44 2.0
e 37 132 1.0
e 38 115 3.0
e 38 31 2.0
e 38 233 1.0
e 38 73 13.0
e 39 221 1.0
e 39 116 1.0
e 39 209 1.0
e 39 243 2.0
e 40 273 1.0
e 40 198 1.0
e 40 32 1.0
e 40 213 1.0
e 41 65 1.0
e 41 248 1.0
e 41 63 1.0
e 41 136 1.0
e 42 47 1.0
e 42 268 1.0
e 42 285 1.0
e 42 167 1.0
e 43 97 1.0
e 43 301 1.0
e 43 153 47.0
e 43 99 2.0
e 44 68 1.0
e 44 201 1.0
e 44 126 1.0
e 44 41 1.0
e 45 138 1.0
e 45 193 1.0
e 45 270 1.0
e 45 244 1.0
e 46 278 1.0
e 46 17 1.0
e 46 140 6.0
e 46 142 2.0
e 47 170 1.0
e 47 107 1.0
e 47 83 2.0
e 47 309 2.0
e 48 54 1.0
e 48 250 1.0
e 48 8 2.0
e 48 95 1.0
e 49 54 2.0
e 49 33 1.0
e 49 215 1.0
e 49 235 1.0
e 50 280 1.0
e 50 236 2.0
e 50 240 1.0
e 50 170 1.0
e 51 113 1.0
e 51 74 1.0
e 51 303 1.0
e 51 91 1.0
e 52 197 2.0
e 52 247 2.0
e 52 71 1.0
e 52 101 1.0
e 53 190 1.0
e 53 281 1.0
e 53 85 1.0
e 53 61 1.0
e 54 79 1.0
e 54 44 1.0
e 54 70 1.0
e 54 318 2.0
e 55 7 1.0
e 55 141 1.0
e 55 225 1.0
e 55 166 2.0
e 56 270 1.0
e 56 34 1.0
e 56 201 1.0
e 56 257 1.0
e 57 243 1.0
e 57 203 1.0
e 57 153 16.0
e 57 69 2.0
e 58 163 28.0
e 58 50 1.0
e 58 93 1.0
e 58 125 1.0
e 59 296 1.0
e 59 154 1.0
e 59 84 1.0
e 59 177 2.0
e 60 172 1.0
e 60 97 1.0
e 60 166 1.0
e 60 94 1.0
e 61 40 1.0
e 61 226 1.0
e 61 62 1.0
e 61 80 2.0
e 62 1 1.0
e 62 82 1.0
e 62 198 3.0
e 62 148 1.0
e 63 157 1.0
e 63 123 1.0
e 63 239 1.0
e 63 242 1.0
e 64 195 1.0
e 64 252 1.0
e 64 318 1.0
e 64 297 1.0
e 65 1 1.0
e 65 203 1.0
e 65 194 2.0
e 65 43 1.0
e 66 15 1.0
e 66 89 1.0
e 66 240 1.0
e 66 113 1.0
e 67 178 1.0
e 67 140 24.0
e 67 129 1.0
e 67 234 1.0
e 68 288 2.0
e 68 214 1.0
e 68 260 1.0
e 68 235 1.0
e 69 45 1.0
e 69 128 1.0
e 69 234 1.0
e 69 164 1.0
e 70 7 2.0
e 70 153 19.0
e 70 233 1.0
e 70 73 23.0
e 71 282 1.0
e 71 279 2.0
e 71 213 1.0
e 71 286 1.0
e 72 290 1.0
e 72 4 1.0
e 72 228 1.0
e 72 297 2.0
e 73 243 30.0
e 73 129 38.0
e 73 238 43.0
e 73 308 1.0
e 73 284 32.0
e 73 35 41.0
e 73 76 31.0
e 73 78 23.0
e 73 175 42.0
e 73 189 29.0
e 74 99 1.0
e 74 62 1.0
e 74 204 1.0
e 74 187 1.0
e 75 103 1.0
e 75 150 1.0
e 75 29 16.0
e 75 296 2.0
e 76 180 12.0
e 76 72 22.0
e 76 111 24.0
e 76 42 2.0
e 76 96 38.0
e 76 29 33.0
e 76 106 22.0
e 76 284 27.0
e 76 78 40.0
e 77 79 1.0
e 77 95 1.0
e 77 177 1.0
e 77 9 1.0
e 78 230 41.0
e 78 68 45.0
e 78 9 24.0
e 78 187 9.0
e 78 236 7.0
e 78 106 6.0
e 78 308 7.0
e 78 96 24.0
e 78 131 21.0
e 78 254 12.0
e 78 261 30.0
e 79 48 1.0
e 79 278 2.0
e 79 304 1.0
e 79 291 1.0
e 80 207 1.0
e 80 318 1.0
e 80 39 1.0
e 80 248 1.0
e 81 276 3.0
e 81 190 2.0
e 81 170 1.0
e 81 246 3.0
e 82 264 1.0
e 82 139 1.0
e 82 272 3.0
e 82 252 2.0
e 83 277 2.0
e 83 140 22.0
e 83 270 1.0
e 83 9 2.0
e 84 80 1.0
e 84 209 1.0
e 84 211 1.0
e 84 10 1.0
e 85 63 1.0
e 85 225 1.0
e 85 71 1.0
e 85 276 1.0
e 86 23 1.0
e 86 37 2.0
e 86 194 1.0
e 86 48 2.0
e 87 198 1.0
e 87 110 1.0
e 87 94 1.0
e 87 44 1.0
e 88 177 1.0
e 88 136 2.0
e 88 202 1.0
e 88 30 1.0
e 89 108 16.0
e 89 129 1.0
e 89 138 1.0
e 89 80 1.0
e 90 45 1.0
e 90 304 2.0
e 90 115 1.0
e 90 149 1.0
e 91 68 1.0
e 91 231 1.0
e 91 282 1.0
e 91 292 1.0
e 92 259 1.0
e 92 129 1.0
e 92 152 1.0
e 92 298 1.0
e 93 41 1.0
e 93 99 1.0
e 93 31 1.0
e 93 94 3.0
e 94 115 1.0
e 94 118 3.0
e 94 43 2.0
e 94 199 31.0
e 95 249 1.0
e 95 288 1.0
e 95 247 1.0
e 95 27 2.0
e 96 119 36.0
e 96 54 24.0
e 96 209 10.0
e 96 300 29.0
e 96 261 20.0
e 96 29 22.0
e 96 308 26.0
e 96 131 29.0
e 96 284 44.0
e 96 137 16.0
e 97 52 1.0
e 97 42 1.0
e 97 134 1.0
e 97 93 1.0
e 98 247 49.0
e 98 295 20.0
e 98 89 1.0
e 98 122 7.0
e 98 308 39.0
e 98 163 25.0
e 98 73 39.0
e 98 29 44.0
e 98 131 37.0
e 98 96 16.0
e 98 137 1.0
e 98 192 41.0
e 98 106 6.0
e 99 97 1.0
e 99 101 1.0
e 99 279 2.0
e 99 168 1.0
e 100 67 1.0
e 100 207 1.0
e 100 241 1.0
e 100 302 2.0
e 101 307 1.0
e 101 272 2.0
e 101 186 1.0
e 101 228 2.0
e 102 148 2.0
e 102 230 1.0
e 102 239 1.0
e 102 175 10.0
e 103 225 1.0
e 103 199 10.0
e 103 125 2.0
e 103 218 1.0
e 104 28 1.0
e 104 137 8.0
e 104 185 2.0
e 104 210 1.0
e 105 40 1.0
e 105 111 1.0
e 105 306 1.0
e 105 186 1.0
e 106 311 15.0
e 106 317 44.0
e 106 24 20.0
e 106 214 3.0
e 106 73 8.0
e 106 96 25.0
e 106 108 9.0
e 106 308 47.0
e 106 131 45.0
e 106 261 15.0
e 106 137 18.0
e 106 140 46.0
e 107 28 1.0
e 107 244 1.0
e 107 70 1.0
e 107 66 1.0
e 108 237 12.0
e 108 282 38.0
e 108 18 23.0
e 108 136 14.0
e 108 131 4.0
e 108 261 33.0
e 108 96 37.0
e 108 73 21.0
e 108 137 20.0
e 108 140 48.0
e 108 98 12.0
e 108 76 35.0
e 109 268 1.0
e 109 32 2.0
e 109 98 42.0
e 109 61 1.0
e 110 168 1.0
e 110 265 1.0
e 110 143 1.0
e 110 233 3.0
e 111 64 1.0
e 111 230 2.0
e 111 251 1.0
e 111 124 1.0
e 112 312 2.0
e 112 148 1.0
e 112 313 1.0
e 112 180 2.0
e 113 183 1.0
e 113 46 1.0
e 113 145 1.0
e 113 14 2.0
e 114 245 1.0
e 114 16 1.0
e 114 180 1.0
e 114 138 1.0
e 115 185 1.0
e 115 258 2.0
e 115 155 2.0
e 115 175 33.0
e 116 115 2.0
e 116 29 19.0
e 116 34 1.0
e 116 10 1.0
e 117 96 41.0
e 117 307 1.0
e 117 317 1.0
e 117 241 2.0
e 118 271 1.0
e 118 28 1.0
e 118 29 31.0
e 118 109 1.0
e 119 302 1.0
e 119 251 2.0
e 119 299 1.0
e 119 117 1.0
e 120 213 1.0
e 120 242 1.0
e 120 306 1.0
e 120 122 3.0
e 121 59 2.0
e 121 293 1.0
e 121 125 1.0
e 121 89 1.0
e 122 39 1.0
e 122 111 3.0
e 122 220 1.0
e 122 221 1.0
e 123 262 1.0
e 123 65 1.0
e 123 115 1.0
e 123 278 1.0
e 124 191 1.0
e 124 274 1.0
e 124 95 1.0
e 124 42 2.0
e 125 160 1.0
e 125 76 38.0
e 125 81 2.0
e 125 314 1.0
e 126 37 1.0
e 126 125 1.0
e 126 201 1.0
e 127 19 1.0
e 127 62 1.0
e 127 38 1.0
e 127 179 4.0
e 128 5 1.0
e 128 241 2.0
e 128 216 1.0
e 128 270 2.0
e 129 122 1.0
e 129 183 3.0
e 129 65 2.0
e 129 286 2.0
e 130 245 1.0
e 130 295 1.0
e 130 237 1.0
e 130 262 1.0
e 131 269 38.0
e 131 197 40.0
e 131 164 5.0
e 131 137 2.0
e 131 153 42.0
e 131 140 16.0
e 131 308 3.0
e 131 163 11.0
e 131 76 44.0
e 131 173 26.0
e 132 277 1.0
e 132 223 1.0
e 132 19 1.0
e 132 196 1.0
e 133 278 1.0
e 133 304 1.0
e 133 230 1.0
e 133 216 1.0
e 134 187 1.0
e 134 133 2.0
e 134 237 1.0
e 134 128 1.0
e 135 293 1.0
e 135 227 2.0
e 135 243 1.0
e 135 56 1.0
e 136 5 1.0
e 136 13 1.0
e 136 92 1.0
e 136 229 2.0
e 137 29 4.0
e 137 110 49.0
e 137 263 13.0
e 137 273 44.0
e 138 36 1.0
e 138 308 32.0
e 138 231 1.0
e 138 106 46.0
e 139 265 1.0
e 139 3 1.0
e 139 262 1.0
e 139 141 1.0
e 140 32 34.0
e 140 229 49.0
e 140 177 46.0
e 140 2 34.0
e 140 199 20.0
e 140 153 21.0
e 140 261 23.0
e 141 150 1.0
e 141 272 1.0
e 141 149 1.0
e 142 71 1.0
e 142 260 1.0
e 142 76 9.0
e 142 225 3.0
e 143 249 1.0
e 143 200 1.0
e 143 92 1.0
e 143 7 1.0
e 144 57 1.0
e 144 248 1.0
e 144 171 1.0
e 144 203 1.0
e 145 25 1.0
e 145 291 2.0
e 145 229 2.0
e 145 308 32.0
e 146 47 1.0
e 146 269 1.0
e 146 147 1.0
e 146 41 1.0
e 147 310 1.0
e 147 15 1.0
e 147 3 2.0
e 147 213 2.0
e 148 7 2.0
e 148 31 1.0
e 148 57 1.0
e 148 237 1.0
e 149 33 1.0
e 149 287 1.0
e 149 136 3.0
e 149 277 1.0
e 150 153 33.0
e 150 76 19.0
e 150 94 1.0
e 150 203 1.0
e 151 210 1.0
e 151 248 3.0
e 151 159 1.0
e 151 92 1.0
e 152 203 1.0
e 152 73 22.0
e 152 305 1.0
e 152 226 3.0
e 153 11 7.0
e 153 173 2.0
e 153 171 25.0
e 153 137 27.0
e 153 76 3.0
e 153 284 45.0
e 153 78 22.0
e 153 175 12.0
e 154 251 2.0
e 154 28 1.0
e 154 282 1.0
e 154 247 1.0
e 155 268 1.0
e 155 238 1.0
e 155 281 1.0
e 155 197 1.0
e 156 257 2.0
e 156 205 12.0
e 156 17 2.0
e 156 211 2.0
e 157 256 1.0
e 157 188 1.0
e 157 18 1.0
e 157 301 1.0
e 158 111 2.0
e 158 3 1.0
e 158 256 1.0
e 158 14 2.0
e 159 109 1.0
e 159 126 1.0
e 159 298 1.0
e 159 274 1.0
e 160 110 1.0
e 160 178 1.0
e 160 44 1.0
e 160 95 1.0
e 161 280 1.0
e 161 81 1.0
e 161 287 1.0
e 161 291 2.0
e 162 178 1.0
e 162 318 1.0
e 162 114 1.0
e 162 303 1.0
e 163 252 7.0
e 163 146 14.0
e 163 82 41.0
e 163 11 10.0
e 163 96 32.0
e 163 153 28.0
e 163 284 33.0
e 163 173 27.0
e 163 78 48.0
e 164 7 2.0
e 164 29 38.0
e 164 231 2.0
e 164 219 1.0
e 165 246 2.0
e 165 288 3.0
e 165 135 1.0
e 165 121 1.0
e 166 235 1.0
e 166 67 1.0
e 166 244 1.0
e 166 98 41.0
e 167 96 28.0
e 167 63 1.0
e 167 252 2.0
e 167 223 2.0
e 168 109 1.0
e 168 7 1.0
e 168 194 1.0
e 168 157 1.0
e 169 39 1.0
e 169 53 1.0
e 169 56 1.0
e 169 301 1.0
e 170 4 2.0
e 170 287 1.0
e 170 66 1.0
e 170 71 1.0
e 171 113 1.0
e 171 318 1.0
e 171 151 1.0
e 171 308 39.0
e 172 268 1.0
e 172 43 2.0
e 172 251 2.0
e 172 202 1.0
e 173 147 38.0
e 173 28 4.0
e 173 59 31.0
e 173 257 14.0
e 173 284 44.0
e 173 137 29.0
e 173 261 19.0
e 173 140 43.0
e 173 78 45.0
e 173 175 31.0
e 173 96 19.0
e 174 152 1.0
e 174 300 1.0
e 174 125 1.0
e 174 233 2.0
e 175 193 39.0
e 175 150 32.0
e 175 245 34.0
e 175 58 24.0
e 175 98 43.0
e 175 261 36.0
e 175 284 6.0
e 176 146 1.0
e 176 10 1.0
e 176 51 1.0
e 176 264 1.0
e 177 116 2.0
e 177 22 2.0
e 177 166 1.0
e 177 263 2.0
e 178 11 1.0
e 178 312 2.0
e 178 275 1.0
e 178 172 1.0
e 179 114 5.0
e 179 188 4.0
e 179 97 1.0
e 179 205 48.0
e 180 257 3.0
e 180 241 1.0
e 180 113 1.0
e 180 164 1.0
e 181 85 1.0
e 181 55 1.0
e 181 43 1.0
e 181 281 1.0
e 182 274 2.0
e 182 247 1.0
e 182 90 1.0
e 182 180 1.0
e 183 79 1.0
e 183 225 1.0
e 183 126 1.0
e 183 210 1.0
e 184 53 1.0
e 184 250 1.0
e 184 1 2.0
e 184 87 1.0
e 185 178 1.0
e 185 44 3.0
e 185 15 1.0
e 185 205 39.0
e 186 128 1.0
e 186 51 1.0
e 186 220 1.0
e 186 191 1.0
e 187 57 1.0
e 187 270 1.0
e 187 215 1.0
e 187 17 1.0
e 188 203 2.0
e 188 247 1.0
e 188 291 2.0
e 188 37 1.0
e 189 209 2.0
e 189 274 2.0
e 189 64 1.0
e 189 29 47.0
e 190 7 2.0
e 190 257 1.0
e 190 114 1.0
e 190 281 1.0
e 191 181 1.0
e 191 204 1.0
e 191 258 1.0
e 191 131 5.0
e 192 239 1.0
e 192 255 2.0
e 192 167 3.0
e 192 161 2.0
e 193 287 2.0
e 193 270 2.0
e 193 156 1.0
e 193 200 1.0
e 194 78 37.0
e 194 7 1.0
e 194 184 1.0
e 194 80 1.0
e 195 137 48.0
e 195 71 2.0
e 195 203 1.0
e 195 176 1.0
e 196 142 1.0
e 196 121 1.0
e 196 300 1.0
e 196 290 2.0
e 197 68 1.0
e 197 119 1.0
e 197 116 1.0
e 197 167 2.0
e 198 289 2.0
e 198 100 2.0
e 198 163 35.0
e 198 295 2.0
e 199 232 39.0
e 199 249 24.0
e 199 44 48.0
e 199 162 47.0
e 199 98 40.0
e 199 106 29.0
e 199 205 29.0
e 199 131 44.0
e 199 153 39.0
e 199 108 39.0
e 199 137 2.0
e 199 284 37.0
e 200 2 2.0
e 200 37 1.0
e 200 206 1.0
e 200 112 1.0
e 201 315 1.0
e 201 172 1.0
e 201 163 15.0
e 201 119 1.0
e 202 271 1.0
e 202 86 1.0
e 202 8 1.0
e 202 211 1.0
e 203 299 1.0
e 203 284 7.0
e 203 253 3.0
e 204 168 1.0
e 204 230 1.0
e 204 104 3.0
e 204 316 1.0
e 205 278 11.0
e 205 251 44.0
e 205 15 45.0
e 205 146 1.0
e 205 98 3.0
e 205 284 2.0
e 205 106 35.0
e 205 108 6.0
e 205 153 19.0
e 205 140 8.0
e 206 2 3.0
e 206 149 1.0
e 206 161 1.0
e 206 195 1.0
e 207 298 2.0
e 207 107 1.0
e 207 278 1.0
e 207 284 29.0
e 208 255 1.0
e 208 235 1.0
e 208 193 1.0
e 208 294 1.0
e 209 87 1.0
e 209 78 7.0
e 209 53 1.0
e 209 171 1.0
e 210 308 10.0
e 210 29 14.0
e 210 119 1.0
e 210 232 1.0
e 211 22 2.0
e 211 201 3.0
e 211 13 1.0
e 211 36 1.0
e 212 198 2.0
e 212 13 1.0
e 212 179 5.0
e 212 38 2.0
e 213 79 1.0
e 213 191 2.0
e 213 211 1.0
e 213 36 2.0
e 214 155 1.0
e 214 127 2.0
e 214 248 1.0
e 214 79 1.0
e 215 17 1.0
e 215 312 3.0
e 215 265 1.0
e 215 252 1.0
e 216 306 1.0
e 216 150 1.0
e 216 55 1.0
e 216 183 1.0
e 217 138 1.0
e 217 142 2.0
e 217 295 1.0
e 217 63 1.0
e 218 163 40.0
e 218 228 2.0
e 218 132 1.0
e 218 91 1.0
e 219 191 1.0
e 219 152 1.0
e 219 40 1.0
e 220 254 2.0
e 220 256 1.0
e 220 97 1.0
e 220 109 1.0
e 221 194 1.0
e 221 269 1.0
e 221 138 1.0
e 222 176 1.0
e 222 125 2.0
e 222 243 3.0
e 222 137 45.0
e 223 119 3.0
e 223 90 1.0
e 223 110 1.0
e 223 56 1.0
e 224 33 1.0
e 224 238 1.0
e 224 235 1.0
e 224 18 1.0
e 225 211 1.0
e 225 277 1.0
e 225 179 6.0
e 225 88 1.0
e 226 16 2.0
e 226 253 1.0
e 226 131 14.0
e 226 84 1.0
e 227 269 1.0
e 227 1 1.0
e 227 64 1.0
e 227 291 2.0
e 228 95 1.0
e 228 219 1.0
e 228 54 2.0
e 228 5 1.0
e 229 76 33.0
e 229 301 1.0
e 229 177 1.0
e 229 314 1.0
e 230 117 2.0
e 230 115 2.0
e 230 39 2.0
e 230 280 1.0
e 231 165 1.0
e 231 150 1.0
e 231 173 46.0
e 231 291 1.0
e 232 303 1.0
e 232 57 1.0
e 232 49 1.0
e 232 209 1.0
e 233 1 2.0
e 233 199 37.0
e 233 32 2.0
e 233 187 1.0
e 234 257 1.0
e 234 144 1.0
e 234 167 1.0
e 234 270 1.0
e 235 246 1.0
e 235 102 1.0
e 235 180 1.0
e 235 119 1.0
e 236 184 4.0
e 236 289 1.0
e 236 108 47.0
e 236 17 5.0
e 237 191 3.0
e 237 110 1.0
e 237 318 1.0
e 237 205 35.0
e 238 259 1.0
e 238 313 1.0
e 238 91 1.0
e 238 153 3.0
e 239 244 1.0
e 239 127 1.0
e 239 105 1.0
e 239 211 1.0
e 240 198 2.0
e 240 258 1.0
e 240 4 2.0
e 240 6 1.0
e 241 165 3.0
e 241 133 1.0
e 241 212 1.0
e 241 288 1.0
e 242 4 1.0
e 242 172 1.0
e 242 204 1.0
e 243 311 1.0
e 243 12 1.0
e 243 174 1.0
e 243 230 1.0
e 244 77 1.0
e 244 97 1.0
e 244 245 1.0
e 244 264 1.0
e 245 200 2.0
e 245 202 2.0
e 245 147 2.0
e 245 132 2.0
e 246 113 1.0
e 246 194 3.0
e 246 114 1.0
e 246 314 1.0
e 247 2 2.0
e 247 312 1.0
e 247 17 1.0
e 247 170 2.0
e 248 183 1.0
e 248 265 1.0
e 248 163 30.0
e 248 157 1.0
e 249 274 2.0
e 249 173 9.0
e 249 12 1.0
e 249 250 1.0
e 250 127 1.0
e 250 218 2.0
e 250 280 1.0
e 250 242 1.0
e 251 300 1.0
e 251 272 1.0
e 251 41 1.0
e 251 95 1.0
e 252 51 1.0
e 252 7 1.0
e 252 157 1.0
e 252 155 1.0
e 253 63 1.0
e 253 275 1.0
e 253 129 1.0
e 253 264 1.0
e 254 19 2.0
e 254 167 2.0
e 254 175 39.0
e 255 198 1.0
e 255 30 1.0
e 255 166 2.0
e 256 71 1.0
e 256 291 2.0
e 256 187 1.0
e 256 221 1.0
e 257 238 3.0
e 257 310 1.0
e 257 154 2.0
e 257 233 1.0
e 258 52 1.0
e 258 12 1.0
e 258 267 1.0
e 258 46 1.0
e 259 20 1.0
e 259 263 1.0
e 259 4 2.0
e 259 212 1.0
e 260 250 1.0
e 260 163 11.0
e 260 15 1.0
e 260 14 2.0
e 261 262 11.0
e 261 46 30.0
e 261 80 24.0
e 261 28 4.0
e 261 131 37.0
e 261 308 15.0
e 261 163 3.0
e 262 27 2.0
e 262 25 1.0
e 262 136 1.0
e 262 148 1.0
e 263 147 2.0
e 263 7 3.0
e 263 264 1.0
e 263 42 2.0
e 264 146 1.0
e 264 268 1.0
e 264 142 1.0
e 264 23 1.0
e 265 137 12.0
e 265 317 3.0
e 265 242 1.0
e 265 245 1.0
e 266 71 1.0
e 266 21 1.0
e 266 41 1.0
e 266 147 1.0
e 267 145 2.0
e 267 201 2.0
e 267 196 1.0
e 267 136 1.0
e 268 307 1.0
e 268 69 1.0
e 268 5 1.0
e 269 169 1.0
e 269 73 30.0
e 269 314 1.0
e 269 260 1.0
e 270 25 1.0
e 270 115 1.0
e 270 78 30.0
e 270 2 1.0
e 271 214 2.0
e 271 154 1.0
e 271 128 3.0
e 271 105 1.0
e 272 128 1.0
e 272 113 1.0
e 272 309 1.0
e 272 293 1.0
e 273 75 2.0
e 273 232 1.0
e 273 5 1.0
e 273 69 1.0
e 274 76 40.0
e 274 255 1.0
e 274 53 2.0
e 274 311 2.0
e 275 24 1.0
e 275 83 3.0
e 275 249 1.0
e 275 177 1.0
e 276 296 1.0
e 276 267 1.0
e 276 285 1.0
e 276 26 3.0
e 277 294 2.0
e 277 283 1.0
e 277 291 1.0
e 277 55 1.0
e 278 170 1.0
e 278 100 1.0
e 278 64 1.0
e 278 19 1.0
e 279 77 1.0
e 279 109 1.0
e 279 175 49.0
e 279 55 2.0
e 280 85 1.0
e 280 14 1.0
e 280 268 1.0
e 280 300 1.0
e 281 49 1.0
e 281 208 1.0
e 281 307 1.0
e 281 68 2.0
e 282 247 1.0
e 282 15 1.0
e 282 248 1.0
e 282 106 35.0
e 283 194 2.0
e 283 30 1.0
e 283 150 1.0
e 283 225 1.0
e 284 187 22.0
e 284 128 20.0
e 284 196 12.0
e 284 162 29.0
e 284 261 44.0
e 284 106 31.0
e 285 9 1.0
e 285 273 2.0
e 285 175 29.0
e 285 219 1.0
e 286 297 1.0
e 286 29 29.0
e 286 173 40.0
e 286 219 1.0
e 287 207 1.0
e 287 297 1.0
e 287 283 1.0
e 287 34 1.0
e 288 243 1.0
e 288 250 1.0
e 288 77 1.0
e 288 285 1.0
e 289 269 1.0
e 289 87 1.0
e 289 54 1.0
e 289 24 1.0
e 290 69 1.0
e 290 266 2.0
e 290 21 1.0
e 290 11 1.0
e 291 76 10.0
e 291 24 1.0
e 291 42 2.0
e 291 9 2.0
e 292 63 1.0
e 292 8 1.0
e 292 280 1.0
e 292 203 2.0
e 293 94 2.0
e 293 80 1.0
e 293 196 1.0
e 293 268 1.0
e 294 58 1.0
e 294 44 1.0
e 294 269 1.0
e 294 169 2.0
e 295 300 2.0
e 295 16 1.0
e 295 177 1.0
e 295 310 2.0
e 296 87 1.0
e 296 63 1.0
e 296 313 2.0
e 296 148 1.0
e 297 201 1.0
e 297 279 2.0
e 297 314 1.0
e 297 136 2.0
e 298 157 1.0
e 298 50 1.0
e 298 223 1.0
e 298 246 1.0
e 299 298 1.0
e 299 267 1.0
e 299 124 1.0
e 299 226 1.0
e 300 112 1.0
e 300 249 2.0
e 300 269 1.0
e 300 36 2.0
e 301 230 1.0
e 301 182 1.0
e 301 57 2.0
e 301 99 1.0
e 302 52 1.0
e 302 183 1.0
e 302 160 2.0
e 302 62 2.0
e 303 188 1.0
e 303 294 1.0
e 303 115 1.0
e 303 97 1.0
e 304 286 1.0
e 304 109 2.0
e 304 252 1.0
e 304 283 1.0
e 305 0 1.0
e 305 240 1.0
e 305 89 1.0
e 305 165 1.0
e 306 78 3.0
e 306 172 2.0
e 306 184 1.0
e 306 26 1.0
e 307 73 22.0
e 307 233 1.0
e 307 251 1.0
e 307 311 1.0
e 308 133 35.0
e 308 153 28.0
e 308 27 45.0
e 308 270 44.0
e 308 199 31.0
e 308 173 24.0
e 309 140 31.0
e 309 44 1.0
e 309 298 1.0
e 309 3 1.0
e 310 175 11.0
e 310 291 1.0
e 310 125 2.0
e 310 58 1.0
e 311 39 1.0
e 311 259 1.0
e 311 296 1.0
e 311 113 1.0
e 312 205 5.0
e 312 129 2.0
e 312 246 1.0
e 312 42 1.0
e 313 214 2.0
e 313 52 1.0
e 313 133 1.0
e 313 290 1.0
e 314 149 1.0
e 314 196 1.0
e 314 25 1.0
e 314 86 1.0
e 315 279 1.0
e 315 20 3.0
e 315 252 1.0
e 315 140 49.0
e 316 285 1.0
e 316 14 3.0
e 316 28 1.0
e 316 127 1.0
e 317 253 1.0
e 317 76 19.0
e 317 21 1.0
e 318 36 1.0
e 318 253 1.0
e 318 19 1.0
e 318 122 2.0
e 319 141 2.0
e 319 185 1.0
e 319 5 1.0
e 319 25 2.0
